initial_solutions/Fattahi_setup_13_modified.fjs
2 238
1 375
7 508
3 0
3 167
6 272
2 162
7 224
4 380
1 143
5 251
4 589
1 0
5 128
6 175
2 0
4 145
6 380
