results/log/Fattahi_setup_13_modified.log

Gurobi 10.0.1 (win64) logging started Thu May 18 16:25:17 2023

Set parameter LogFile to value "results/log/Fattahi_setup_13_modificated.log"
Gurobi Optimizer version 10.0.1 build v10.0.1rc0 (win64)

CPU model: AMD Ryzen 7 3700X 8-Core Processor, instruction set [SSE2|AVX|AVX2]
Thread count: 8 physical cores, 16 logical processors, using up to 16 threads

Optimize a model with 497 rows, 421 columns and 2050 nonzeros
Model fingerprint: 0x47c3a29c
Variable types: 0 continuous, 421 integer (372 binary)
Coefficient statistics:
  Matrix range     [1e+00, 1e+09]
  Objective range  [1e+00, 1e+00]
  Bounds range     [1e+00, 1e+00]
  RHS range        [1e+00, 3e+09]
Warning: Model contains large matrix coefficients
Warning: Model contains large rhs
         Consider reformulating model or setting NumericFocus parameter
         to avoid numerical issues.
Presolve removed 80 rows and 224 columns
Presolve time: 0.00s
Presolved: 417 rows, 197 columns, 1910 nonzeros
Variable types: 0 continuous, 197 integer (149 binary)

Root relaxation: objective 2.021000e+03, 56 iterations, 0.00 seconds (0.00 work units)

    Nodes    |    Current Node    |     Objective Bounds      |     Work
 Expl Unexpl |  Obj  Depth IntInf | Incumbent    BestBd   Gap | It/Node Time

     0     0 2021.00006    0   32          - 2021.00006      -     -    0s
H    0     0                    4651.0000000 2021.00006  56.5%     -    0s
H    0     0                    4016.0000000 2021.00007  49.7%     -    0s
     0     0 2021.00007    0   30 4016.00000 2021.00007  49.7%     -    0s
     0     0 2048.00000    0   38 4016.00000 2048.00000  49.0%     -    0s
     0     0 2048.00000    0   38 4016.00000 2048.00000  49.0%     -    0s
H    0     0                    3914.0000000 2048.00000  47.7%     -    0s
H    0     0                    3808.0000000 2053.00000  46.1%     -    0s
H    0     0                    3541.0000000 2064.99098  41.7%     -    0s
     0     0 2064.99098    0   38 3541.00000 2064.99098  41.7%     -    0s
H    0     0                    3269.0000000 2064.99098  36.8%     -    0s
     0     0 2064.99098    0   38 3269.00000 2064.99098  36.8%     -    0s
     0     0 2066.00000    0   38 3269.00000 2066.00000  36.8%     -    0s
H    0     0                    3039.0000000 2069.00000  31.9%     -    0s
H    0     0                    3001.0000000 2074.01355  30.9%     -    0s
     0     0 2074.01355    0   34 3001.00000 2074.01355  30.9%     -    0s
H    0     0                    2907.0000000 2074.01629  28.7%     -    0s
     0     0 2074.01629    0   34 2907.00000 2074.01629  28.7%     -    0s
     0     0 2074.01629    0   34 2907.00000 2074.01629  28.7%     -    0s
     0     0 2076.00002    0   34 2907.00000 2076.00002  28.6%     -    0s
H    0     0                    2823.0000000 2081.00000  26.3%     -    0s
     0     0 2081.00000    0   34 2823.00000 2081.00000  26.3%     -    0s
     0     0 2081.00003    0   34 2823.00000 2081.00003  26.3%     -    0s
     0     0 2086.00000    0   33 2823.00000 2086.00000  26.1%     -    0s
     0     0 2087.00000    0   32 2823.00000 2087.00000  26.1%     -    0s
H    0     0                    2803.0000000 2087.00000  25.5%     -    0s
     0     2 2087.00000    0   32 2803.00000 2087.00000  25.5%     -    0s
H  258   233                    2797.0000000 2092.95492  25.2%   3.7    0s
*  611   483              22    2685.0000000 2092.95492  22.1%   3.7    0s
H 1711   838                    2630.0000000 2148.17442  18.3%   3.9    0s
H 1713   797                    2622.0000000 2148.17442  18.1%   3.9    0s
* 6266  1807              49    2594.0000000 2278.83322  12.1%   7.1    1s
H 8291  2434                    2579.0000000 2298.44258  10.9%   7.1    1s
*11086  2776              46    2526.0000000 2323.58131  8.01%   7.2    1s
H13898  2850                    2517.0000000 2343.92162  6.88%   7.3    1s

Cutting planes:
  Learned: 46
  Gomory: 55
  MIR: 66
  StrongCG: 28
  Flow cover: 154
  Inf proof: 9
  Zero half: 1
  RLT: 8
  Relax-and-lift: 1

Explored 35026 nodes (272647 simplex iterations) in 2.95 seconds (1.72 work units)
Thread count was 16 (of 16 available processors)

Solution count 10: 2517 2526 2579 ... 2823

Optimal solution found (tolerance 1.00e-04)
Best objective 2.517000000000e+03, best bound 2.517000000000e+03, gap 0.0000%
Warning: variable name "y[job:0, stage:0, machine:1]" has a space
Warning: constraint name "precedence between 0,1 to 0,0 if x_[j,l,h,z,i]=1" has a space
Warning: to let Gurobi read it back, use rlp format
Warning: variable name "y[job:0, stage:0, machine:1]" has a space
Warning: constraint name "precedence between 0,1 to 0,0 if x_[j,l,h,z,i]=1" has a space
Warning: default variable names used to write mps file
Warning: default constraint names used to write mps file
Warning: variable name "y[job:0, stage:0, machine:1]" has a space
Warning: default variable names used to write solution file
